100 151052
94 4 81 53 87 51 58 98 89 62 27 24 60 73 56 44 99 82 67 23 39 32 100 17 75 61 50 68 90 8 69 47 96 30 91 77 93 48 72 63 33 52 31 83 7 57 9 86 65 1 6 35 34 19 14 2 10 92 21 28 46 74 5 80 42 54 15 88 11 97 64 36 22 29 49 84 25 43 13 40 76 26 18 78 59 16 3 45 20 79 37 70 71 12 38 85 55 41 95 66 
